\ENCODING=ISO-8859-1
\Problem name: ilog.cplex

Minimize
 obj1: 101916 x1 + 106987 x2 + 96759 x3 + 101365 x4 + 107087 x5 + 106536 x6
       + 96898 x7 + 93992 x8 + 100853 x9 + 104270 x10 + 92757 x11 + 108690 x12
       + 100619 x13 + 101915 x14 + 105972 x15 + 103674 x16 + 93276 x17
       + 97020 x18 + 99510 x19 + 96410 x20 + 95557 x21 + 105097 x22
       + 106410 x23 + 98876 x24 + 103453 x25 + 106052 x26 + 101227 x27
       + 103347 x28 + 95834 x29 + 98913 x30 + 100151 x31 + 98962 x32
       + 90548 x33 + 99010 x34 + 94306 x35 + 107319 x36 + 100079 x37
       + 102586 x38 + 104751 x39 + 103942 x40 + 98190 x41 + 95238 x42
       + 97458 x43 + 101732 x44 + 109040 x45 + 92628 x46 + 91845 x47
       + 92343 x48 + 105876 x49 + 94604 x50 + 107130 x51 + 99655 x52
       + 98896 x53 + 109130 x54 + 100399 x55 + 108443 x56 + 102718 x57
       + 101441 x58 + 106020 x59 + 100278 x60 + 105874 x61 + 100399 x62
       + 91352 x63 + 108804 x64 + 93162 x65 + 90946 x66 + 104869 x67
       + 107441 x68 + 106890 x69 + 107618 x70 + 102862 x71 + 102480 x72
       + 100355 x73 + 94924 x74 + 104818 x75 + 95424 x76 + 107006 x77
       + 92406 x78 + 102523 x79 + 99245 x80 + 98117 x81 + 95465 x82
       + 106208 x83 + 104867 x84 + 107963 x85 + 94847 x86 + 90001 x87
       + 91359 x88 + 102175 x89 + 105275 x90 + 98490 x91 + 96151 x92
       + 92370 x93 + 96808 x94 + 96374 x95 + 90071 x96 + 98080 x97 + 101303 x98
       + 104000 x99 + 96060 x100 + 90122 x101 + 93192 x102 + 94213 x103
       + 98159 x104 + 108437 x105 + 99770 x106 + 105947 x107 + 104870 x108
       + 95466 x109 + 99076 x110 + 98152 x111 + 93700 x112 + 104519 x113
       + 106975 x114 + 109193 x115 + 108949 x116 + 104404 x117 + 95614 x118
       + 90255 x119 + 101481 x120 + 93669 x121 + 98379 x122 + 101732 x123
       + 101859 x124 + 97339 x125 + 93190 x126 + 94369 x127 + 105466 x128
       + 100204 x129 + 105206 x130 + 99586 x131 + 107705 x132 + 95349 x133
       + 94251 x134 + 108409 x135 + 94468 x136 + 97015 x137 + 107141 x138
       + 109099 x139 + 100698 x140 + 102785 x141 + 100581 x142 + 99837 x143
       + 98205 x144 + 91699 x145 + 96396 x146 + 94696 x147 + 102783 x148
       + 92104 x149 + 97628 x150 + 91367 x151 + 100803 x152 + 101338 x153
       + 94119 x154 + 92191 x155 + 102643 x156 + 105588 x157 + 93453 x158
       + 98691 x159 + 104883 x160 + 107022 x161 + 101898 x162 + 104807 x163
       + 93489 x164 + 104914 x165 + 108432 x166 + 107547 x167 + 103537 x168
       + 96852 x169 + 101488 x170 + 103171 x171 + 109600 x172 + 104003 x173
       + 98104 x174 + 105018 x175 + 98627 x176 + 92573 x177 + 107689 x178
       + 107902 x179 + 103717 x180 + 109973 x181 + 102216 x182 + 106353 x183
       + 95376 x184 + 109425 x185 + 108064 x186 + 106999 x187 + 100580 x188
       + 92473 x189 + 103868 x190 + 98944 x191 + 109388 x192 + 95359 x193
       + 103398 x194 + 100303 x195 + 93840 x196 + 102225 x197 + 102838 x198
       + 103856 x199 + 104556 x200 + 106690 x201 + 94517 x202 + 107026 x203
       + 103737 x204 + 108797 x205 + 104000 x206 + 96713 x207 + 100607 x208
       + 105699 x209 + 90232 x210 + 102733 x211 + 90934 x212 + 99576 x213
       + 102148 x214 + 95831 x215 + 108399 x216 + 102266 x217 + 91974 x218
       + 109471 x219 + 94637 x220 + 96171 x221 + 103173 x222 + 109479 x223
       + 102241 x224 + 101176 x225 + 97893 x226 + 90005 x227 + 90896 x228
       + 100627 x229 + 108455 x230 + 91297 x231 + 101505 x232 + 100699 x233
       + 100768 x234 + 91342 x235 + 104320 x236 + 94361 x237 + 101442 x238
       + 105661 x239 + 98798 x240 + 93681 x241 + 104938 x242 + 97351 x243
       + 95299 x244 + 102356 x245 + 102281 x246 + 92948 x247 + 91689 x248
       + 104093 x249 + 98643 x250 + 93531 x251 + 96887 x252 + 95074 x253
       + 98473 x254 + 104383 x255 + 91060 x256 + 107974 x257 + 97946 x258
       + 102037 x259 + 107173 x260 + 100503 x261 + 96740 x262 + 94833 x263
       + 96500 x264 + 103172 x265 + 91617 x266 + 107053 x267 + 95567 x268
       + 93804 x269 + 91802 x270 + 106932 x271 + 90089 x272 + 107253 x273
       + 94542 x274 + 109678 x275 + 108673 x276 + 107320 x277 + 92437 x278
       + 91696 x279 + 96086 x280 + 98956 x281 + 105247 x282 + 103693 x283
       + 105596 x284 + 108105 x285 + 108887 x286 + 102340 x287 + 105223 x288
       + 96398 x289 + 109984 x290 + 92871 x291 + 93697 x292 + 108383 x293
       + 105621 x294 + 108300 x295 + 108509 x296 + 90112 x297 + 94808 x298
       + 104844 x299 + 100626 x300 + 108304 x301 + 92235 x302 + 100887 x303
       + 96600 x304 + 105859 x305 + 96545 x306 + 96334 x307 + 95959 x308
       + 92363 x309 + 100659 x310 + 99976 x311 + 91694 x312 + 99924 x313
       + 102379 x314 + 109685 x315 + 92794 x316 + 101548 x317 + 101991 x318
       + 92036 x319 + 94237 x320 + 104532 x321 + 91726 x322 + 99022 x323
       + 95727 x324 + 106925 x325 + 102136 x326 + 91923 x327 + 109768 x328
       + 91805 x329 + 92321 x330 + 104036 x331 + 92150 x332 + 96932 x333
       + 98335 x334 + 97119 x335 + 108054 x336 + 105818 x337 + 92060 x338
       + 105153 x339 + 107836 x340 + 100333 x341 + 91493 x342 + 93457 x343
       + 107925 x344 + 94643 x345 + 102579 x346 + 91167 x347 + 94370 x348
       + 95661 x349 + 102617 x350 + 95755 x351 + 109671 x352 + 103099 x353
       + 102843 x354 + 102189 x355 + 105495 x356 + 101801 x357 + 105459 x358
       + 104422 x359 + 109734 x360 + 98173 x361 + 97721 x362 + 106318 x363
       + 91996 x364 + 107120 x365 + 98184 x366 + 103651 x367 + 91274 x368
       + 106257 x369 + 95167 x370 + 98482 x371 + 109859 x372 + 91716 x373
       + 106092 x374 + 93919 x375 + 100595 x376 + 105492 x377 + 91496 x378
       + 100696 x379 + 98811 x380 + 98437 x381 + 109970 x382 + 92482 x383
       + 96520 x384 + 101284 x385 + 101883 x386 + 102936 x387 + 98405 x388
       + 105023 x389 + 96943 x390 + 104302 x391 + 96587 x392 + 101500 x393
       + 93477 x394 + 104641 x395 + 94352 x396 + 105283 x397 + 95775 x398
       + 108839 x399 + 97763 x400 + 98474 x401 + 92919 x402 + 108296 x403
       + 104038 x404 + 91117 x405 + 91594 x406 + 108036 x407 + 100726 x408
       + 104215 x409 + 93077 x410 + 90176 x411 + 93846 x412 + 94917 x413
       + 104492 x414 + 92177 x415 + 95531 x416 + 104681 x417 + 91701 x418
       + 99226 x419 + 90590 x420 + 95596 x421 + 105331 x422 + 97293 x423
       + 109472 x424 + 105151 x425 + 97768 x426 + 94456 x427 + 108523 x428
       + 91046 x429 + 91854 x430 + 96070 x431 + 92668 x432 + 107018 x433
       + 98485 x434 + 94072 x435 + 109898 x436 + 95691 x437 + 97321 x438
       + 91048 x439 + 91802 x440 + 105100 x441 + 92524 x442 + 105623 x443
       + 109866 x444 + 91787 x445 + 93728 x446 + 97360 x447 + 103383 x448
       + 105300 x449 + 91370 x450 + 95062 x451 + 106797 x452 + 109711 x453
       + 94537 x454 + 103871 x455 + 98007 x456 + 107623 x457 + 98591 x458
       + 98157 x459 + 98905 x460 + 96379 x461 + 99928 x462 + 104055 x463
       + 101147 x464 + 109675 x465 + 106017 x466 + 103742 x467 + 109825 x468
       + 95133 x469 + 99157 x470 + 107296 x471 + 107433 x472 + 91778 x473
       + 105806 x474 + 105253 x475 + 94557 x476 + 100930 x477 + 108987 x478
       + 104916 x479 + 102811 x480 + 99498 x481 + 108760 x482 + 97986 x483
       + 103381 x484 + 97009 x485 + 103883 x486 + 92289 x487 + 107979 x488
       + 100729 x489 + 91575 x490 + 106172 x491 + 98115 x492 + 106809 x493
       + 101668 x494 + 90532 x495 + 103269 x496 + 99655 x497 + 96454 x498
       + 90554 x499 + 17819 x500 + 37064 x501 + 40366 x502 + 40470 x503
       + 40042 x504 + 38965 x505 + 42751 x506 + 39534 x507 + 39886 x508
       + 37714 x509 + 36845 x510 + 36622 x511 + 38886 x512 + 39917 x513
       + 41153 x514 + 43752 x515 + 36987 x516 + 42858 x517 + 36765 x518
       + 41397 x519 + 40834 x520 + 37125 x521 + 43647 x522 + 41088 x523
       + 36209 x524 + 40314 x525 + 42125 x526 + 39854 x527 + 36053 x528
       + 43632 x529 + 42459 x530 + 41719 x531 + 37321 x532 + 38134 x533
       + 42808 x534 + 43716 x535 + 39666 x536 + 41030 x537 + 43984 x538
       + 39013 x539 + 41494 x540 + 40961 x541 + 36319 x542 + 37529 x543
       + 38138 x544 + 40311 x545 + 43559 x546 + 37004 x547 + 38948 x548
       + 36588 x549 + 46444 x550
Subject To
 c1:   - x18 + x19 + x24 - x30 - x33 + x39 - x41 + x42 + x43  = 0
 c2:   - x68 + x69 + x74 - x80 - x83 + x89 - x91 + x92 + x93  = 0
 c3:   - x118 + x119 + x124 - x130 - x133 + x139 - x141 + x142 + x143  = 0
 c4:   - x168 + x169 + x174 - x180 - x183 + x189 - x191 + x192 + x193  = 0
 c5:   - x218 + x219 + x224 - x230 - x233 + x239 - x241 + x242 + x243  = 0
 c6:   - x268 + x269 + x274 - x280 - x283 + x289 - x291 + x292 + x293  = 0
 c7:   - x318 + x319 + x324 - x330 - x333 + x339 - x341 + x342 + x343  = 1
 c8:   - x368 + x369 + x374 - x380 - x383 + x389 - x391 + x392 + x393  = 0
 c9:   - x418 + x419 + x424 - x430 - x433 + x439 - x441 + x442 + x443  = 0
 c10:  - x468 + x469 + x474 - x480 - x483 + x489 - x491 + x492 + x493  = 0
 c11:  x13 - x15 + x17 - x27 - x34 - x42 + x49  = 0
 c12:  x63 - x65 + x67 - x77 - x84 - x92 + x99  = 1
 c13:  x113 - x115 + x117 - x127 - x134 - x142 + x149  = 0
 c14:  x163 - x165 + x167 - x177 - x184 - x192 + x199  = 0
 c15:  x213 - x215 + x217 - x227 - x234 - x242 + x249  = 0
 c16:  x263 - x265 + x267 - x277 - x284 - x292 + x299  = 1
 c17:  x313 - x315 + x317 - x327 - x334 - x342 + x349  = 0
 c18:  x363 - x365 + x367 - x377 - x384 - x392 + x399  = 0
 c19:  x413 - x415 + x417 - x427 - x434 - x442 + x449  = 0
 c20:  x463 - x465 + x467 - x477 - x484 - x492 + x499  = 1
 c21:  - x1 + x2 + x14 + x21 + x25 - x37 - x40 + x46  = 1
 c22:  - x51 + x52 + x64 + x71 + x75 - x87 - x90 + x96  = 0
 c23:  - x101 + x102 + x114 + x121 + x125 - x137 - x140 + x146  = 0
 c24:  - x151 + x152 + x164 + x171 + x175 - x187 - x190 + x196  = 0
 c25:  - x201 + x202 + x214 + x221 + x225 - x237 - x240 + x246  = 0
 c26:  - x251 + x252 + x264 + x271 + x275 - x287 - x290 + x296  = 0
 c27:  - x301 + x302 + x314 + x321 + x325 - x337 - x340 + x346  = 0
 c28:  - x351 + x352 + x364 + x371 + x375 - x387 - x390 + x396  = 0
 c29:  - x401 + x402 + x414 + x421 + x425 - x437 - x440 + x446  = 0
 c30:  - x451 + x452 + x464 + x471 + x475 - x487 - x490 + x496  = 0
 c31:  x3 - x9 - x16 - x17 + x38 - x46 - x47  = 0
 c32:  x53 - x59 - x66 - x67 + x88 - x96 - x97  = 0
 c33:  x103 - x109 - x116 - x117 + x138 - x146 - x147  = 0
 c34:  x153 - x159 - x166 - x167 + x188 - x196 - x197  = 0
 c35:  x203 - x209 - x216 - x217 + x238 - x246 - x247  = 0
 c36:  x253 - x259 - x266 - x267 + x288 - x296 - x297  = 0
 c37:  x303 - x309 - x316 - x317 + x338 - x346 - x347  = 0
 c38:  x353 - x359 - x366 - x367 + x388 - x396 - x397  = 0
 c39:  x403 - x409 - x416 - x417 + x438 - x446 - x447  = 0
 c40:  x453 - x459 - x466 - x467 + x488 - x496 - x497  = 0
 c41:  x8 - x13 + x23 - x36 - x44 - x50  = 0
 c42:  x58 - x63 + x73 - x86 - x94 - x100  = 0
 c43:  x108 - x113 + x123 - x136 - x144 - x150  = 0
 c44:  x158 - x163 + x173 - x186 - x194 - x200  = 0
 c45:  x208 - x213 + x223 - x236 - x244 - x250  = 0
 c46:  x258 - x263 + x273 - x286 - x294 - x300  = 0
 c47:  x308 - x313 + x323 - x336 - x344 - x350  = 0
 c48:  x358 - x363 + x373 - x386 - x394 - x400  = 0
 c49:  x408 - x413 + x423 - x436 - x444 - x450  = 0
 c50:  x458 - x463 + x473 - x486 - x494 - x500  = -1
 c51:  - x8 + x9 - x14 + x15 - x20 + x33 + x40  = 0
 c52:  - x58 + x59 - x64 + x65 - x70 + x83 + x90  = -1
 c53:  - x108 + x109 - x114 + x115 - x120 + x133 + x140  = 0
 c54:  - x158 + x159 - x164 + x165 - x170 + x183 + x190  = 0
 c55:  - x208 + x209 - x214 + x215 - x220 + x233 + x240  = 1
 c56:  - x258 + x259 - x264 + x265 - x270 + x283 + x290  = 0
 c57:  - x308 + x309 - x314 + x315 - x320 + x333 + x340  = 0
 c58:  - x358 + x359 - x364 + x365 - x370 + x383 + x390  = 0
 c59:  - x408 + x409 - x414 + x415 - x420 + x433 + x440  = 0
 c60:  - x458 + x459 - x464 + x465 - x470 + x483 + x490  = 0
 c61:  x10 + x26 - x38 + x45  = 0
 c62:  x60 + x76 - x88 + x95  = 0
 c63:  x110 + x126 - x138 + x145  = 0
 c64:  x160 + x176 - x188 + x195  = 0
 c65:  x210 + x226 - x238 + x245  = 0
 c66:  x260 + x276 - x288 + x295  = 0
 c67:  x310 + x326 - x338 + x345  = 0
 c68:  x360 + x376 - x388 + x395  = 0
 c69:  x410 + x426 - x438 + x445  = 0
 c70:  x460 + x476 - x488 + x495  = 0
 c71:  x1 - x3 + x5 + x11 - x24 - x25 - x26 - x28 + x47  = 0
 c72:  x51 - x53 + x55 + x61 - x74 - x75 - x76 - x78 + x97  = 0
 c73:  x101 - x103 + x105 + x111 - x124 - x125 - x126 - x128 + x147  = 0
 c74:  x151 - x153 + x155 + x161 - x174 - x175 - x176 - x178 + x197  = 1
 c75:  x201 - x203 + x205 + x211 - x224 - x225 - x226 - x228 + x247  = -1
 c76:  x251 - x253 + x255 + x261 - x274 - x275 - x276 - x278 + x297  = 0
 c77:  x301 - x303 + x305 + x311 - x324 - x325 - x326 - x328 + x347  = 0
 c78:  x351 - x353 + x355 + x361 - x374 - x375 - x376 - x378 + x397  = 0
 c79:  x401 - x403 + x405 + x411 - x424 - x425 - x426 - x428 + x447  = 1
 c80:  x451 - x453 + x455 + x461 - x474 - x475 - x476 - x478 + x497  = 0
 c81:  x4 - x11 + x12 - x32 + x44 - x49  = 0
 c82:  x54 - x61 + x62 - x82 + x94 - x99  = 0
 c83:  x104 - x111 + x112 - x132 + x144 - x149  = 1
 c84:  x154 - x161 + x162 - x182 + x194 - x199  = 0
 c85:  x204 - x211 + x212 - x232 + x244 - x249  = 0
 c86:  x254 - x261 + x262 - x282 + x294 - x299  = -1
 c87:  x304 - x311 + x312 - x332 + x344 - x349  = 0
 c88:  x354 - x361 + x362 - x382 + x394 - x399  = 0
 c89:  x404 - x411 + x412 - x432 + x444 - x449  = 0
 c90:  x454 - x461 + x462 - x482 + x494 - x499  = 0
 c91:  - x5 - x7 + x18 - x22 - x31 + x35 - x45 + x48  = 0
 c92:  - x55 - x57 + x68 - x72 - x81 + x85 - x95 + x98  = 0
 c93:  - x105 - x107 + x118 - x122 - x131 + x135 - x145 + x148  = -1
 c94:  - x155 - x157 + x168 - x172 - x181 + x185 - x195 + x198  = 0
 c95:  - x205 - x207 + x218 - x222 - x231 + x235 - x245 + x248  = 0
 c96:  - x255 - x257 + x268 - x272 - x281 + x285 - x295 + x298  = 0
 c97:  - x305 - x307 + x318 - x322 - x331 + x335 - x345 + x348  = 0
 c98:  - x355 - x357 + x368 - x372 - x381 + x385 - x395 + x398  = 0
 c99:  - x405 - x407 + x418 - x422 - x431 + x435 - x445 + x448  = 0
 c100: - x455 - x457 + x468 - x472 - x481 + x485 - x495 + x498  = 0
 c101: x22 + x27 - x35 - x39  = -1
 c102: x72 + x77 - x85 - x89  = 0
 c103: x122 + x127 - x135 - x139  = 0
 c104: x172 + x177 - x185 - x189  = 0
 c105: x222 + x227 - x235 - x239  = 0
 c106: x272 + x277 - x285 - x289  = 0
 c107: x322 + x327 - x335 - x339  = 0
 c108: x372 + x377 - x385 - x389  = 0
 c109: x422 + x427 - x435 - x439  = 0
 c110: x472 + x477 - x485 - x489  = 0
 c111: - x6 + x16 - x21 + x28 + x30 + x31 + x36 - x48  = 0
 c112: - x56 + x66 - x71 + x78 + x80 + x81 + x86 - x98  = 0
 c113: - x106 + x116 - x121 + x128 + x130 + x131 + x136 - x148  = 0
 c114: - x156 + x166 - x171 + x178 + x180 + x181 + x186 - x198  = -1
 c115: - x206 + x216 - x221 + x228 + x230 + x231 + x236 - x248  = 0
 c116: - x256 + x266 - x271 + x278 + x280 + x281 + x286 - x298  = 0
 c117: - x306 + x316 - x321 + x328 + x330 + x331 + x336 - x348  = 0
 c118: - x356 + x366 - x371 + x378 + x380 + x381 + x386 - x398  = 0
 c119: - x406 + x416 - x421 + x428 + x430 + x431 + x436 - x448  = 0
 c120: - x456 + x466 - x471 + x478 + x480 + x481 + x486 - x498  = 0
 c121: x6 + x7 - x19 + x20 + x37 + x41  = 0
 c122: x56 + x57 - x69 + x70 + x87 + x91  = 0
 c123: x106 + x107 - x119 + x120 + x137 + x141  = 0
 c124: x156 + x157 - x169 + x170 + x187 + x191  = 0
 c125: x206 + x207 - x219 + x220 + x237 + x241  = 0
 c126: x256 + x257 - x269 + x270 + x287 + x291  = 0
 c127: x306 + x307 - x319 + x320 + x337 + x341  = 0
 c128: x356 + x357 - x369 + x370 + x387 + x391  = -1
 c129: x406 + x407 - x419 + x420 + x437 + x441  = -1
 c130: x456 + x457 - x469 + x470 + x487 + x491  = 0
 c131: - x4 + x29 + x50  = 0
 c132: - x54 + x79 + x100  = 0
 c133: - x104 + x129 + x150  = 0
 c134: - x154 + x179 + x200  = 0
 c135: - x204 + x229 + x250  = 0
 c136: - x254 + x279 + x300  = 0
 c137: - x304 + x329 + x350  = -1
 c138: - x354 + x379 + x400  = 0
 c139: - x404 + x429 + x450  = 0
 c140: - x454 + x479 + x500  = 0
 c141: - x2 - x10 - x12 - x23 - x29 + x32 + x34 - x43  = 0
 c142: - x52 - x60 - x62 - x73 - x79 + x82 + x84 - x93  = 0
 c143: - x102 - x110 - x112 - x123 - x129 + x132 + x134 - x143  = 0
 c144: - x152 - x160 - x162 - x173 - x179 + x182 + x184 - x193  = 0
 c145: - x202 - x210 - x212 - x223 - x229 + x232 + x234 - x243  = 0
 c146: - x252 - x260 - x262 - x273 - x279 + x282 + x284 - x293  = 0
 c147: - x302 - x310 - x312 - x323 - x329 + x332 + x334 - x343  = 0
 c148: - x352 - x360 - x362 - x373 - x379 + x382 + x384 - x393  = 1
 c149: - x402 - x410 - x412 - x423 - x429 + x432 + x434 - x443  = 0
 c150: - x452 - x460 - x462 - x473 - x479 + x482 + x484 - x493  = 0
 c151: 4 x1 + 4 x51 + 4 x101 + 4 x151 + 4 x201 + 4 x251 + 4 x301 + 4 x351
       + 4 x401 + 4 x451 - 19 x501 <= 0
 c152: 4 x2 + 4 x52 + 4 x102 + 4 x152 + 4 x202 + 4 x252 + 4 x302 + 4 x352
       + 4 x402 + 4 x452 - 19 x502 <= 0
 c153: 4 x3 + 4 x53 + 4 x103 + 4 x153 + 4 x203 + 4 x253 + 4 x303 + 4 x353
       + 4 x403 + 4 x453 - 20 x503 <= 0
 c154: 4 x4 + 4 x54 + 4 x104 + 4 x154 + 4 x204 + 4 x254 + 4 x304 + 4 x354
       + 4 x404 + 4 x454 - 21 x504 <= 0
 c155: 4 x5 + 4 x55 + 4 x105 + 4 x155 + 4 x205 + 4 x255 + 4 x305 + 4 x355
       + 4 x405 + 4 x455 - 20 x505 <= 0
 c156: 4 x6 + 4 x56 + 4 x106 + 4 x156 + 4 x206 + 4 x256 + 4 x306 + 4 x356
       + 4 x406 + 4 x456 - 21 x506 <= 0
 c157: 4 x7 + 4 x57 + 4 x107 + 4 x157 + 4 x207 + 4 x257 + 4 x307 + 4 x357
       + 4 x407 + 4 x457 - 19 x507 <= 0
 c158: 4 x8 + 4 x58 + 4 x108 + 4 x158 + 4 x208 + 4 x258 + 4 x308 + 4 x358
       + 4 x408 + 4 x458 - 19 x508 <= 0
 c159: 4 x9 + 4 x59 + 4 x109 + 4 x159 + 4 x209 + 4 x259 + 4 x309 + 4 x359
       + 4 x409 + 4 x459 - 22 x509 <= 0
 c160: 4 x10 + 4 x60 + 4 x110 + 4 x160 + 4 x210 + 4 x260 + 4 x310 + 4 x360
       + 4 x410 + 4 x460 - 22 x510 <= 0
 c161: 4 x11 + 4 x61 + 4 x111 + 4 x161 + 4 x211 + 4 x261 + 4 x311 + 4 x361
       + 4 x411 + 4 x461 - 18 x511 <= 0
 c162: 4 x12 + 4 x62 + 4 x112 + 4 x162 + 4 x212 + 4 x262 + 4 x312 + 4 x362
       + 4 x412 + 4 x462 - 18 x512 <= 0
 c163: 4 x13 + 4 x63 + 4 x113 + 4 x163 + 4 x213 + 4 x263 + 4 x313 + 4 x363
       + 4 x413 + 4 x463 - 20 x513 <= 0
 c164: 4 x14 + 4 x64 + 4 x114 + 4 x164 + 4 x214 + 4 x264 + 4 x314 + 4 x364
       + 4 x414 + 4 x464 - 20 x514 <= 0
 c165: 4 x15 + 4 x65 + 4 x115 + 4 x165 + 4 x215 + 4 x265 + 4 x315 + 4 x365
       + 4 x415 + 4 x465 - 22 x515 <= 0
 c166: 4 x16 + 4 x66 + 4 x116 + 4 x166 + 4 x216 + 4 x266 + 4 x316 + 4 x366
       + 4 x416 + 4 x466 - 18 x516 <= 0
 c167: 4 x17 + 4 x67 + 4 x117 + 4 x167 + 4 x217 + 4 x267 + 4 x317 + 4 x367
       + 4 x417 + 4 x467 - 19 x517 <= 0
 c168: 4 x18 + 4 x68 + 4 x118 + 4 x168 + 4 x218 + 4 x268 + 4 x318 + 4 x368
       + 4 x418 + 4 x468 - 18 x518 <= 0
 c169: 4 x19 + 4 x69 + 4 x119 + 4 x169 + 4 x219 + 4 x269 + 4 x319 + 4 x369
       + 4 x419 + 4 x469 - 19 x519 <= 0
 c170: 4 x20 + 4 x70 + 4 x120 + 4 x170 + 4 x220 + 4 x270 + 4 x320 + 4 x370
       + 4 x420 + 4 x470 - 20 x520 <= 0
 c171: 4 x21 + 4 x71 + 4 x121 + 4 x171 + 4 x221 + 4 x271 + 4 x321 + 4 x371
       + 4 x421 + 4 x471 - 21 x521 <= 0
 c172: 4 x22 + 4 x72 + 4 x122 + 4 x172 + 4 x222 + 4 x272 + 4 x322 + 4 x372
       + 4 x422 + 4 x472 - 20 x522 <= 0
 c173: 4 x23 + 4 x73 + 4 x123 + 4 x173 + 4 x223 + 4 x273 + 4 x323 + 4 x373
       + 4 x423 + 4 x473 - 18 x523 <= 0
 c174: 4 x24 + 4 x74 + 4 x124 + 4 x174 + 4 x224 + 4 x274 + 4 x324 + 4 x374
       + 4 x424 + 4 x474 - 20 x524 <= 0
 c175: 4 x25 + 4 x75 + 4 x125 + 4 x175 + 4 x225 + 4 x275 + 4 x325 + 4 x375
       + 4 x425 + 4 x475 - 22 x525 <= 0
 c176: 4 x26 + 4 x76 + 4 x126 + 4 x176 + 4 x226 + 4 x276 + 4 x326 + 4 x376
       + 4 x426 + 4 x476 - 19 x526 <= 0
 c177: 4 x27 + 4 x77 + 4 x127 + 4 x177 + 4 x227 + 4 x277 + 4 x327 + 4 x377
       + 4 x427 + 4 x477 - 18 x527 <= 0
 c178: 4 x28 + 4 x78 + 4 x128 + 4 x178 + 4 x228 + 4 x278 + 4 x328 + 4 x378
       + 4 x428 + 4 x478 - 19 x528 <= 0
 c179: 4 x29 + 4 x79 + 4 x129 + 4 x179 + 4 x229 + 4 x279 + 4 x329 + 4 x379
       + 4 x429 + 4 x479 - 21 x529 <= 0
 c180: 4 x30 + 4 x80 + 4 x130 + 4 x180 + 4 x230 + 4 x280 + 4 x330 + 4 x380
       + 4 x430 + 4 x480 - 21 x530 <= 0
 c181: 4 x31 + 4 x81 + 4 x131 + 4 x181 + 4 x231 + 4 x281 + 4 x331 + 4 x381
       + 4 x431 + 4 x481 - 19 x531 <= 0
 c182: 4 x32 + 4 x82 + 4 x132 + 4 x182 + 4 x232 + 4 x282 + 4 x332 + 4 x382
       + 4 x432 + 4 x482 - 19 x532 <= 0
 c183: 4 x33 + 4 x83 + 4 x133 + 4 x183 + 4 x233 + 4 x283 + 4 x333 + 4 x383
       + 4 x433 + 4 x483 - 20 x533 <= 0
 c184: 4 x34 + 4 x84 + 4 x134 + 4 x184 + 4 x234 + 4 x284 + 4 x334 + 4 x384
       + 4 x434 + 4 x484 - 22 x534 <= 0
 c185: 4 x35 + 4 x85 + 4 x135 + 4 x185 + 4 x235 + 4 x285 + 4 x335 + 4 x385
       + 4 x435 + 4 x485 - 19 x535 <= 0
 c186: 4 x36 + 4 x86 + 4 x136 + 4 x186 + 4 x236 + 4 x286 + 4 x336 + 4 x386
       + 4 x436 + 4 x486 - 19 x536 <= 0
 c187: 4 x37 + 4 x87 + 4 x137 + 4 x187 + 4 x237 + 4 x287 + 4 x337 + 4 x387
       + 4 x437 + 4 x487 - 20 x537 <= 0
 c188: 4 x38 + 4 x88 + 4 x138 + 4 x188 + 4 x238 + 4 x288 + 4 x338 + 4 x388
       + 4 x438 + 4 x488 - 20 x538 <= 0
 c189: 4 x39 + 4 x89 + 4 x139 + 4 x189 + 4 x239 + 4 x289 + 4 x339 + 4 x389
       + 4 x439 + 4 x489 - 20 x539 <= 0
 c190: 4 x40 + 4 x90 + 4 x140 + 4 x190 + 4 x240 + 4 x290 + 4 x340 + 4 x390
       + 4 x440 + 4 x490 - 19 x540 <= 0
 c191: 4 x41 + 4 x91 + 4 x141 + 4 x191 + 4 x241 + 4 x291 + 4 x341 + 4 x391
       + 4 x441 + 4 x491 - 22 x541 <= 0
 c192: 4 x42 + 4 x92 + 4 x142 + 4 x192 + 4 x242 + 4 x292 + 4 x342 + 4 x392
       + 4 x442 + 4 x492 - 19 x542 <= 0
 c193: 4 x43 + 4 x93 + 4 x143 + 4 x193 + 4 x243 + 4 x293 + 4 x343 + 4 x393
       + 4 x443 + 4 x493 - 22 x543 <= 0
 c194: 4 x44 + 4 x94 + 4 x144 + 4 x194 + 4 x244 + 4 x294 + 4 x344 + 4 x394
       + 4 x444 + 4 x494 - 19 x544 <= 0
 c195: 4 x45 + 4 x95 + 4 x145 + 4 x195 + 4 x245 + 4 x295 + 4 x345 + 4 x395
       + 4 x445 + 4 x495 - 21 x545 <= 0
 c196: 4 x46 + 4 x96 + 4 x146 + 4 x196 + 4 x246 + 4 x296 + 4 x346 + 4 x396
       + 4 x446 + 4 x496 - 20 x546 <= 0
 c197: 4 x47 + 4 x97 + 4 x147 + 4 x197 + 4 x247 + 4 x297 + 4 x347 + 4 x397
       + 4 x447 + 4 x497 - 18 x547 <= 0
 c198: 4 x48 + 4 x98 + 4 x148 + 4 x198 + 4 x248 + 4 x298 + 4 x348 + 4 x398
       + 4 x448 + 4 x498 - 21 x548 <= 0
 c199: 4 x49 + 4 x99 + 4 x149 + 4 x199 + 4 x249 + 4 x299 + 4 x349 + 4 x399
       + 4 x449 + 4 x499 - 20 x549 <= 0
 c200: 4 x50 + 4 x100 + 4 x150 + 4 x200 + 4 x250 + 4 x300 + 4 x350 + 4 x400
       + 4 x450 + 4 x500 - 28 x550 <= 0
Bounds
 0 <= x1 <= 1
 0 <= x2 <= 1
 0 <= x3 <= 1
 0 <= x4 <= 1
 0 <= x5 <= 1
 0 <= x6 <= 1
 0 <= x7 <= 1
 0 <= x8 <= 1
 0 <= x9 <= 1
 0 <= x10 <= 1
 0 <= x11 <= 1
 0 <= x12 <= 1
 0 <= x13 <= 1
 0 <= x14 <= 1
 0 <= x15 <= 1
 0 <= x16 <= 1
 0 <= x17 <= 1
 0 <= x18 <= 1
 0 <= x19 <= 1
 0 <= x20 <= 1
 0 <= x21 <= 1
 0 <= x22 <= 1
 0 <= x23 <= 1
 0 <= x24 <= 1
 0 <= x25 <= 1
 0 <= x26 <= 1
 0 <= x27 <= 1
 0 <= x28 <= 1
 0 <= x29 <= 1
 0 <= x30 <= 1
 0 <= x31 <= 1
 0 <= x32 <= 1
 0 <= x33 <= 1
 0 <= x34 <= 1
 0 <= x35 <= 1
 0 <= x36 <= 1
 0 <= x37 <= 1
 0 <= x38 <= 1
 0 <= x39 <= 1
 0 <= x40 <= 1
 0 <= x41 <= 1
 0 <= x42 <= 1
 0 <= x43 <= 1
 0 <= x44 <= 1
 0 <= x45 <= 1
 0 <= x46 <= 1
 0 <= x47 <= 1
 0 <= x48 <= 1
 0 <= x49 <= 1
 0 <= x50 <= 1
 0 <= x51 <= 1
 0 <= x52 <= 1
 0 <= x53 <= 1
 0 <= x54 <= 1
 0 <= x55 <= 1
 0 <= x56 <= 1
 0 <= x57 <= 1
 0 <= x58 <= 1
 0 <= x59 <= 1
 0 <= x60 <= 1
 0 <= x61 <= 1
 0 <= x62 <= 1
 0 <= x63 <= 1
 0 <= x64 <= 1
 0 <= x65 <= 1
 0 <= x66 <= 1
 0 <= x67 <= 1
 0 <= x68 <= 1
 0 <= x69 <= 1
 0 <= x70 <= 1
 0 <= x71 <= 1
 0 <= x72 <= 1
 0 <= x73 <= 1
 0 <= x74 <= 1
 0 <= x75 <= 1
 0 <= x76 <= 1
 0 <= x77 <= 1
 0 <= x78 <= 1
 0 <= x79 <= 1
 0 <= x80 <= 1
 0 <= x81 <= 1
 0 <= x82 <= 1
 0 <= x83 <= 1
 0 <= x84 <= 1
 0 <= x85 <= 1
 0 <= x86 <= 1
 0 <= x87 <= 1
 0 <= x88 <= 1
 0 <= x89 <= 1
 0 <= x90 <= 1
 0 <= x91 <= 1
 0 <= x92 <= 1
 0 <= x93 <= 1
 0 <= x94 <= 1
 0 <= x95 <= 1
 0 <= x96 <= 1
 0 <= x97 <= 1
 0 <= x98 <= 1
 0 <= x99 <= 1
 0 <= x100 <= 1
 0 <= x101 <= 1
 0 <= x102 <= 1
 0 <= x103 <= 1
 0 <= x104 <= 1
 0 <= x105 <= 1
 0 <= x106 <= 1
 0 <= x107 <= 1
 0 <= x108 <= 1
 0 <= x109 <= 1
 0 <= x110 <= 1
 0 <= x111 <= 1
 0 <= x112 <= 1
 0 <= x113 <= 1
 0 <= x114 <= 1
 0 <= x115 <= 1
 0 <= x116 <= 1
 0 <= x117 <= 1
 0 <= x118 <= 1
 0 <= x119 <= 1
 0 <= x120 <= 1
 0 <= x121 <= 1
 0 <= x122 <= 1
 0 <= x123 <= 1
 0 <= x124 <= 1
 0 <= x125 <= 1
 0 <= x126 <= 1
 0 <= x127 <= 1
 0 <= x128 <= 1
 0 <= x129 <= 1
 0 <= x130 <= 1
 0 <= x131 <= 1
 0 <= x132 <= 1
 0 <= x133 <= 1
 0 <= x134 <= 1
 0 <= x135 <= 1
 0 <= x136 <= 1
 0 <= x137 <= 1
 0 <= x138 <= 1
 0 <= x139 <= 1
 0 <= x140 <= 1
 0 <= x141 <= 1
 0 <= x142 <= 1
 0 <= x143 <= 1
 0 <= x144 <= 1
 0 <= x145 <= 1
 0 <= x146 <= 1
 0 <= x147 <= 1
 0 <= x148 <= 1
 0 <= x149 <= 1
 0 <= x150 <= 1
 0 <= x151 <= 1
 0 <= x152 <= 1
 0 <= x153 <= 1
 0 <= x154 <= 1
 0 <= x155 <= 1
 0 <= x156 <= 1
 0 <= x157 <= 1
 0 <= x158 <= 1
 0 <= x159 <= 1
 0 <= x160 <= 1
 0 <= x161 <= 1
 0 <= x162 <= 1
 0 <= x163 <= 1
 0 <= x164 <= 1
 0 <= x165 <= 1
 0 <= x166 <= 1
 0 <= x167 <= 1
 0 <= x168 <= 1
 0 <= x169 <= 1
 0 <= x170 <= 1
 0 <= x171 <= 1
 0 <= x172 <= 1
 0 <= x173 <= 1
 0 <= x174 <= 1
 0 <= x175 <= 1
 0 <= x176 <= 1
 0 <= x177 <= 1
 0 <= x178 <= 1
 0 <= x179 <= 1
 0 <= x180 <= 1
 0 <= x181 <= 1
 0 <= x182 <= 1
 0 <= x183 <= 1
 0 <= x184 <= 1
 0 <= x185 <= 1
 0 <= x186 <= 1
 0 <= x187 <= 1
 0 <= x188 <= 1
 0 <= x189 <= 1
 0 <= x190 <= 1
 0 <= x191 <= 1
 0 <= x192 <= 1
 0 <= x193 <= 1
 0 <= x194 <= 1
 0 <= x195 <= 1
 0 <= x196 <= 1
 0 <= x197 <= 1
 0 <= x198 <= 1
 0 <= x199 <= 1
 0 <= x200 <= 1
 0 <= x201 <= 1
 0 <= x202 <= 1
 0 <= x203 <= 1
 0 <= x204 <= 1
 0 <= x205 <= 1
 0 <= x206 <= 1
 0 <= x207 <= 1
 0 <= x208 <= 1
 0 <= x209 <= 1
 0 <= x210 <= 1
 0 <= x211 <= 1
 0 <= x212 <= 1
 0 <= x213 <= 1
 0 <= x214 <= 1
 0 <= x215 <= 1
 0 <= x216 <= 1
 0 <= x217 <= 1
 0 <= x218 <= 1
 0 <= x219 <= 1
 0 <= x220 <= 1
 0 <= x221 <= 1
 0 <= x222 <= 1
 0 <= x223 <= 1
 0 <= x224 <= 1
 0 <= x225 <= 1
 0 <= x226 <= 1
 0 <= x227 <= 1
 0 <= x228 <= 1
 0 <= x229 <= 1
 0 <= x230 <= 1
 0 <= x231 <= 1
 0 <= x232 <= 1
 0 <= x233 <= 1
 0 <= x234 <= 1
 0 <= x235 <= 1
 0 <= x236 <= 1
 0 <= x237 <= 1
 0 <= x238 <= 1
 0 <= x239 <= 1
 0 <= x240 <= 1
 0 <= x241 <= 1
 0 <= x242 <= 1
 0 <= x243 <= 1
 0 <= x244 <= 1
 0 <= x245 <= 1
 0 <= x246 <= 1
 0 <= x247 <= 1
 0 <= x248 <= 1
 0 <= x249 <= 1
 0 <= x250 <= 1
 0 <= x251 <= 1
 0 <= x252 <= 1
 0 <= x253 <= 1
 0 <= x254 <= 1
 0 <= x255 <= 1
 0 <= x256 <= 1
 0 <= x257 <= 1
 0 <= x258 <= 1
 0 <= x259 <= 1
 0 <= x260 <= 1
 0 <= x261 <= 1
 0 <= x262 <= 1
 0 <= x263 <= 1
 0 <= x264 <= 1
 0 <= x265 <= 1
 0 <= x266 <= 1
 0 <= x267 <= 1
 0 <= x268 <= 1
 0 <= x269 <= 1
 0 <= x270 <= 1
 0 <= x271 <= 1
 0 <= x272 <= 1
 0 <= x273 <= 1
 0 <= x274 <= 1
 0 <= x275 <= 1
 0 <= x276 <= 1
 0 <= x277 <= 1
 0 <= x278 <= 1
 0 <= x279 <= 1
 0 <= x280 <= 1
 0 <= x281 <= 1
 0 <= x282 <= 1
 0 <= x283 <= 1
 0 <= x284 <= 1
 0 <= x285 <= 1
 0 <= x286 <= 1
 0 <= x287 <= 1
 0 <= x288 <= 1
 0 <= x289 <= 1
 0 <= x290 <= 1
 0 <= x291 <= 1
 0 <= x292 <= 1
 0 <= x293 <= 1
 0 <= x294 <= 1
 0 <= x295 <= 1
 0 <= x296 <= 1
 0 <= x297 <= 1
 0 <= x298 <= 1
 0 <= x299 <= 1
 0 <= x300 <= 1
 0 <= x301 <= 1
 0 <= x302 <= 1
 0 <= x303 <= 1
 0 <= x304 <= 1
 0 <= x305 <= 1
 0 <= x306 <= 1
 0 <= x307 <= 1
 0 <= x308 <= 1
 0 <= x309 <= 1
 0 <= x310 <= 1
 0 <= x311 <= 1
 0 <= x312 <= 1
 0 <= x313 <= 1
 0 <= x314 <= 1
 0 <= x315 <= 1
 0 <= x316 <= 1
 0 <= x317 <= 1
 0 <= x318 <= 1
 0 <= x319 <= 1
 0 <= x320 <= 1
 0 <= x321 <= 1
 0 <= x322 <= 1
 0 <= x323 <= 1
 0 <= x324 <= 1
 0 <= x325 <= 1
 0 <= x326 <= 1
 0 <= x327 <= 1
 0 <= x328 <= 1
 0 <= x329 <= 1
 0 <= x330 <= 1
 0 <= x331 <= 1
 0 <= x332 <= 1
 0 <= x333 <= 1
 0 <= x334 <= 1
 0 <= x335 <= 1
 0 <= x336 <= 1
 0 <= x337 <= 1
 0 <= x338 <= 1
 0 <= x339 <= 1
 0 <= x340 <= 1
 0 <= x341 <= 1
 0 <= x342 <= 1
 0 <= x343 <= 1
 0 <= x344 <= 1
 0 <= x345 <= 1
 0 <= x346 <= 1
 0 <= x347 <= 1
 0 <= x348 <= 1
 0 <= x349 <= 1
 0 <= x350 <= 1
 0 <= x351 <= 1
 0 <= x352 <= 1
 0 <= x353 <= 1
 0 <= x354 <= 1
 0 <= x355 <= 1
 0 <= x356 <= 1
 0 <= x357 <= 1
 0 <= x358 <= 1
 0 <= x359 <= 1
 0 <= x360 <= 1
 0 <= x361 <= 1
 0 <= x362 <= 1
 0 <= x363 <= 1
 0 <= x364 <= 1
 0 <= x365 <= 1
 0 <= x366 <= 1
 0 <= x367 <= 1
 0 <= x368 <= 1
 0 <= x369 <= 1
 0 <= x370 <= 1
 0 <= x371 <= 1
 0 <= x372 <= 1
 0 <= x373 <= 1
 0 <= x374 <= 1
 0 <= x375 <= 1
 0 <= x376 <= 1
 0 <= x377 <= 1
 0 <= x378 <= 1
 0 <= x379 <= 1
 0 <= x380 <= 1
 0 <= x381 <= 1
 0 <= x382 <= 1
 0 <= x383 <= 1
 0 <= x384 <= 1
 0 <= x385 <= 1
 0 <= x386 <= 1
 0 <= x387 <= 1
 0 <= x388 <= 1
 0 <= x389 <= 1
 0 <= x390 <= 1
 0 <= x391 <= 1
 0 <= x392 <= 1
 0 <= x393 <= 1
 0 <= x394 <= 1
 0 <= x395 <= 1
 0 <= x396 <= 1
 0 <= x397 <= 1
 0 <= x398 <= 1
 0 <= x399 <= 1
 0 <= x400 <= 1
 0 <= x401 <= 1
 0 <= x402 <= 1
 0 <= x403 <= 1
 0 <= x404 <= 1
 0 <= x405 <= 1
 0 <= x406 <= 1
 0 <= x407 <= 1
 0 <= x408 <= 1
 0 <= x409 <= 1
 0 <= x410 <= 1
 0 <= x411 <= 1
 0 <= x412 <= 1
 0 <= x413 <= 1
 0 <= x414 <= 1
 0 <= x415 <= 1
 0 <= x416 <= 1
 0 <= x417 <= 1
 0 <= x418 <= 1
 0 <= x419 <= 1
 0 <= x420 <= 1
 0 <= x421 <= 1
 0 <= x422 <= 1
 0 <= x423 <= 1
 0 <= x424 <= 1
 0 <= x425 <= 1
 0 <= x426 <= 1
 0 <= x427 <= 1
 0 <= x428 <= 1
 0 <= x429 <= 1
 0 <= x430 <= 1
 0 <= x431 <= 1
 0 <= x432 <= 1
 0 <= x433 <= 1
 0 <= x434 <= 1
 0 <= x435 <= 1
 0 <= x436 <= 1
 0 <= x437 <= 1
 0 <= x438 <= 1
 0 <= x439 <= 1
 0 <= x440 <= 1
 0 <= x441 <= 1
 0 <= x442 <= 1
 0 <= x443 <= 1
 0 <= x444 <= 1
 0 <= x445 <= 1
 0 <= x446 <= 1
 0 <= x447 <= 1
 0 <= x448 <= 1
 0 <= x449 <= 1
 0 <= x450 <= 1
 0 <= x451 <= 1
 0 <= x452 <= 1
 0 <= x453 <= 1
 0 <= x454 <= 1
 0 <= x455 <= 1
 0 <= x456 <= 1
 0 <= x457 <= 1
 0 <= x458 <= 1
 0 <= x459 <= 1
 0 <= x460 <= 1
 0 <= x461 <= 1
 0 <= x462 <= 1
 0 <= x463 <= 1
 0 <= x464 <= 1
 0 <= x465 <= 1
 0 <= x466 <= 1
 0 <= x467 <= 1
 0 <= x468 <= 1
 0 <= x469 <= 1
 0 <= x470 <= 1
 0 <= x471 <= 1
 0 <= x472 <= 1
 0 <= x473 <= 1
 0 <= x474 <= 1
 0 <= x475 <= 1
 0 <= x476 <= 1
 0 <= x477 <= 1
 0 <= x478 <= 1
 0 <= x479 <= 1
 0 <= x480 <= 1
 0 <= x481 <= 1
 0 <= x482 <= 1
 0 <= x483 <= 1
 0 <= x484 <= 1
 0 <= x485 <= 1
 0 <= x486 <= 1
 0 <= x487 <= 1
 0 <= x488 <= 1
 0 <= x489 <= 1
 0 <= x490 <= 1
 0 <= x491 <= 1
 0 <= x492 <= 1
 0 <= x493 <= 1
 0 <= x494 <= 1
 0 <= x495 <= 1
 0 <= x496 <= 1
 0 <= x497 <= 1
 0 <= x498 <= 1
 0 <= x499 <= 1
 0 <= x500 <= 1
 0 <= x501 <= 1
 0 <= x502 <= 1
 0 <= x503 <= 1
 0 <= x504 <= 1
 0 <= x505 <= 1
 0 <= x506 <= 1
 0 <= x507 <= 1
 0 <= x508 <= 1
 0 <= x509 <= 1
 0 <= x510 <= 1
 0 <= x511 <= 1
 0 <= x512 <= 1
 0 <= x513 <= 1
 0 <= x514 <= 1
 0 <= x515 <= 1
 0 <= x516 <= 1
 0 <= x517 <= 1
 0 <= x518 <= 1
 0 <= x519 <= 1
 0 <= x520 <= 1
 0 <= x521 <= 1
 0 <= x522 <= 1
 0 <= x523 <= 1
 0 <= x524 <= 1
 0 <= x525 <= 1
 0 <= x526 <= 1
 0 <= x527 <= 1
 0 <= x528 <= 1
 0 <= x529 <= 1
 0 <= x530 <= 1
 0 <= x531 <= 1
 0 <= x532 <= 1
 0 <= x533 <= 1
 0 <= x534 <= 1
 0 <= x535 <= 1
 0 <= x536 <= 1
 0 <= x537 <= 1
 0 <= x538 <= 1
 0 <= x539 <= 1
 0 <= x540 <= 1
 0 <= x541 <= 1
 0 <= x542 <= 1
 0 <= x543 <= 1
 0 <= x544 <= 1
 0 <= x545 <= 1
 0 <= x546 <= 1
 0 <= x547 <= 1
 0 <= x548 <= 1
 0 <= x549 <= 1
 0 <= x550 <= 1
Binaries
 x501  x502  x503  x504  x505  x506  x507  x508  x509  x510  x511  x512  x513 
 x514  x515  x516  x517  x518  x519  x520  x521  x522  x523  x524  x525  x526 
 x527  x528  x529  x530  x531  x532  x533  x534  x535  x536  x537  x538  x539 
 x540  x541  x542  x543  x544  x545  x546  x547  x548  x549  x550 
End
